Route #1: 36 4 32 25 21 39 20 16 45 3 29 18 1
Route #2: 10 14
Route #3: 13 12 7
Route #4: 44 26 17 30 5 27 34 22 9 23
Route #5: 31 37 11 19 28 35 38 15 33 8 2 24 42 41 43 6 40
cost 1254.4551394869686
